NAME : tsp30_5.201.tour
COMMENT : Length = 201
COMMENT : Found by LKH [Keld Helsgaun]
TYPE : TOUR
DIMENSION : 30
TOUR_SECTION
1
13
26
16
11
22
3
21
29
18
9
4
12
10
24
5
17
25
6
15
23
14
20
2
28
27
30
7
8
19
-1
EOF
